50
117
119
128
111
151
140
143
130
153
112
142
120
148
143
144
145
114
122
121
148
120
148
149
147
119
124
146
113
120
148
128
135
143
127
123
123
144
140
146
127
111
148
141
132
117
127
134
125
148
130
